instances/knapsack/discrete/knapsack_150_3.lp
\ Model knapsack_150_3
\ LP format - for model browsing. Use MPS format to capture full model detail.
\ Signature: 0x1d3d114bfbe69093
Minimize
  - 75 x[0] - 83 x[1] - 85 x[2] - 77 x[3] - 22 x[4] - 46 x[5] - 90 x[6]
   - 68 x[7] - 55 x[8] - 51 x[9] - 20 x[10] - 48 x[11] - 44 x[12]
   - 51 x[13] - 100 x[14] - 17 x[15] - 31 x[16] - 11 x[17] - 51 x[18]
   - 38 x[19] - 90 x[20] - 96 x[21] - 45 x[22] - 57 x[23] - 38 x[24]
   - 71 x[25] - 21 x[26] - 32 x[27] - 51 x[28] - 61 x[29] - 82 x[30]
   - 45 x[31] - 49 x[32] - 16 x[33] - 76 x[34] - 18 x[35] - 6 x[36]
   - 56 x[37] - 63 x[38] - 96 x[39] - 65 x[40] - 86 x[41] - 38 x[42]
   - 4 x[43] - 19 x[44] - 20 x[45] - 85 x[46] - 97 x[47] - 13 x[48]
   - 62 x[49] - 56 x[50] - 15 x[51] - 76 x[52] - 38 x[53] - 29 x[54]
   - 27 x[55] - 99 x[56] - 77 x[57] - 97 x[58] - 100 x[59] - 81 x[60]
   - 31 x[61] - 10 x[62] - 90 x[63] - 63 x[64] - 54 x[65] - 26 x[66]
   - 82 x[67] - 45 x[68] - 50 x[69] - 78 x[70] - 16 x[71] - 66 x[72]
   - 78 x[73] - 3 x[74] - 91 x[75] - 63 x[76] - 10 x[77] - 57 x[78]
   - 4 x[79] - 44 x[80] - 59 x[81] - 6 x[82] - 95 x[83] - 10 x[84]
   - 89 x[85] - 3 x[86] - 84 x[87] - 89 x[88] - 59 x[89] - 15 x[90]
   - 6 x[91] - 22 x[92] - 77 x[93] - 57 x[94] - 99 x[95] - 34 x[96]
   - 25 x[97] - 89 x[98] - 9 x[99] - 21 x[100] - 54 x[101] - 51 x[102]
   - 22 x[103] - 72 x[104] - 64 x[105] - 55 x[106] - 77 x[107] - 71 x[108]
   - 37 x[109] - 86 x[110] - 95 x[111] - 2 x[112] - 52 x[113] - 35 x[114]
   - 22 x[115] - 56 x[116] - 10 x[117] - 59 x[118] - 32 x[119] - 2 x[120]
   - 63 x[121] - 31 x[122] - 52 x[123] - 44 x[124] - 77 x[125] - 49 x[126]
   - 99 x[127] - 24 x[128] - x[129] - 43 x[130] - 20 x[131] - 53 x[132]
   - 59 x[133] - 26 x[134] - 32 x[135] - 17 x[136] - 2 x[137] - 100 x[138]
   - 66 x[139] - 23 x[140] - 25 x[141] - 70 x[142] - 92 x[143] - 25 x[144]
   - 3 x[145] - 74 x[146] - 48 x[147] - 5 x[148] - 23 x[149]
Subject To
 primal_upper: 14 x[0] + 71 x[1] + 73 x[2] + 78 x[3] + 43 x[4] + 88 x[5]
   + 96 x[6] + 2 x[7] + 16 x[8] + 61 x[9] + 58 x[10] + 30 x[11] + 55 x[12]
   + 31 x[13] + 99 x[14] + 87 x[15] + 100 x[16] + 71 x[17] + 56 x[18]
   + 77 x[19] + 32 x[20] + 86 x[21] + 31 x[22] + 17 x[23] + 79 x[24]
   + 59 x[25] + 49 x[26] + 90 x[27] + 12 x[28] + 82 x[29] + 68 x[30]
   + 30 x[31] + 34 x[32] + 24 x[33] + 79 x[34] + 52 x[35] + 79 x[36]
   + 7 x[37] + 59 x[38] + 49 x[39] + 6 x[40] + 80 x[41] + 49 x[42]
   + 52 x[43] + 34 x[44] + 41 x[45] + 60 x[46] + 48 x[47] + 50 x[48]
   + 87 x[49] + 89 x[50] + 51 x[51] + 24 x[52] + 67 x[53] + 51 x[54]
   + 94 x[55] + 32 x[56] + 89 x[57] + 31 x[58] + 97 x[59] + 31 x[60]
   + 57 x[61] + 66 x[62] + 5 x[63] + 58 x[64] + 15 x[65] + 63 x[66]
   + 9 x[67] + 67 x[68] + 72 x[69] + 100 x[70] + 48 x[71] + 37 x[72]
   + 18 x[73] + 90 x[74] + 11 x[75] + 9 x[76] + 46 x[77] + 31 x[78]
   + 53 x[79] + 24 x[80] + 16 x[81] + 85 x[82] + 72 x[83] + 52 x[84]
   + 56 x[85] + 54 x[86] + 7 x[87] + 81 x[88] + 14 x[89] + 87 x[90]
   + 3 x[91] + 71 x[92] + 14 x[93] + 91 x[94] + 80 x[95] + 100 x[96]
   + 43 x[97] + 99 x[98] + 87 x[99] + 100 x[100] + 3 x[101] + 49 x[102]
   + 59 x[103] + 72 x[104] + 81 x[105] + 74 x[106] + 45 x[107] + 25 x[108]
   + 100 x[109] + 69 x[110] + 70 x[111] + 68 x[112] + 84 x[113] + 4 x[114]
   + 21 x[115] + 2 x[116] + 36 x[117] + 60 x[118] + 7 x[119] + 10 x[120]
   + 75 x[121] + 18 x[122] + 13 x[123] + 96 x[124] + 73 x[125] + 78 x[126]
   + 82 x[127] + 45 x[128] + 62 x[129] + 80 x[130] + 28 x[131] + 61 x[132]
   + 51 x[133] + 91 x[134] + 29 x[135] + 52 x[136] + 97 x[137] + 76 x[138]
   + 51 x[139] + 14 x[140] + 91 x[141] + 98 x[142] + 26 x[143] + 100 x[144]
   + 81 x[145] + 65 x[146] + 38 x[147] + 95 x[148] + 85 x[149] + 1.4 r[0]
   + 7.1 r[1] + 7.3 r[2] + 7.8 r[3] + 4.3 r[4] + 8.8 r[5] + 9.6 r[6]
   + 0.2 r[7] + 1.6 r[8] + 6.1 r[9] + 5.8 r[10] + 3 r[11] + 5.5 r[12]
   + 3.1 r[13] + 9.9 r[14] + 8.7 r[15] + 10 r[16] + 7.1 r[17] + 5.6 r[18]
   + 7.7 r[19] + 3.2 r[20] + 8.6 r[21] + 3.1 r[22] + 1.7 r[23] + 7.9 r[24]
   + 5.9 r[25] + 4.9 r[26] + 9 r[27] + 1.2 r[28] + 8.2 r[29] + 6.8 r[30]
   + 3 r[31] + 3.4 r[32] + 2.4 r[33] + 7.9 r[34] + 5.2 r[35] + 7.9 r[36]
   + 0.7 r[37] + 5.9 r[38] + 4.9 r[39] + 0.6 r[40] + 8 r[41] + 4.9 r[42]
   + 5.2 r[43] + 3.4 r[44] + 4.1 r[45] + 6 r[46] + 4.8 r[47] + 5 r[48]
   + 8.7 r[49] + 8.9 r[50] + 5.1 r[51] + 2.4 r[52] + 6.7 r[53] + 5.1 r[54]
   + 9.4 r[55] + 3.2 r[56] + 8.9 r[57] + 3.1 r[58] + 9.7 r[59] + 3.1 r[60]
   + 5.7 r[61] + 6.6 r[62] + 0.5 r[63] + 5.8 r[64] + 1.5 r[65] + 6.3 r[66]
   + 0.9 r[67] + 6.7 r[68] + 7.2 r[69] + 10 r[70] + 4.8 r[71] + 3.7 r[72]
   + 1.8 r[73] + 9 r[74] + 1.1 r[75] + 0.9 r[76] + 4.6 r[77] + 3.1 r[78]
   + 5.3 r[79] + 2.4 r[80] + 1.6 r[81] + 8.5 r[82] + 7.2 r[83] + 5.2 r[84]
   + 5.6 r[85] + 5.4 r[86] + 0.7 r[87] + 8.1 r[88] + 1.4 r[89] + 8.7 r[90]
   + 0.3 r[91] + 7.1 r[92] + 1.4 r[93] + 9.1 r[94] + 8 r[95] + 10 r[96]
   + 4.3 r[97] + 9.9 r[98] + 8.7 r[99] + 10 r[100] + 0.3 r[101]
   + 4.9 r[102] + 5.9 r[103] + 7.2 r[104] + 8.1 r[105] + 7.4 r[106]
   + 4.5 r[107] + 2.5 r[108] + 10 r[109] + 6.9 r[110] + 7 r[111]
   + 6.8 r[112] + 8.4 r[113] + 0.4 r[114] + 2.1 r[115] + 0.2 r[116]
   + 3.6 r[117] + 6 r[118] + 0.7 r[119] + r[120] + 7.5 r[121] + 1.8 r[122]
   + 1.3 r[123] + 9.6 r[124] + 7.3 r[125] + 7.8 r[126] + 8.2 r[127]
   + 4.5 r[128] + 6.2 r[129] + 8 r[130] + 2.8 r[131] + 6.1 r[132]
   + 5.1 r[133] + 9.1 r[134] + 2.9 r[135] + 5.2 r[136] + 9.7 r[137]
   + 7.6 r[138] + 5.1 r[139] + 1.4 r[140] + 9.1 r[141] + 9.8 r[142]
   + 2.6 r[143] + 10 r[144] + 8.1 r[145] + 6.5 r[146] + 3.8 r[147]
   + 9.5 r[148] + 8.5 r[149] <= 787
 primal_lower: 0.7449135263559069 x[0] + 1.088056794442698 x[1]
   + 3.91493718187507 x[2] + 4.062087290991448 x[3]
   + 3.585360358335095 x[4] + 2.819699963659471 x[5]
   + 3.097633485320897 x[6] + 3.390041653242932 x[7]
   + 1.66939518000472 x[8] + 3.192789238755517 x[9]
   + 0.6400209492722765 x[10] + 4.340974053828779 x[11]
   + 1.488891447166985 x[12] + 2.180483578260204 x[13]
   + 0.480724675540553 x[14] + 3.812343612691282 x[15]
   + 1.192724621443723 x[16] + 0.0513310440364567 x[17]
   + 0.3110586406983246 x[18] + 2.057072125248318 x[19]
   + 1.250292997007586 x[20] + 1.852716670949663 x[21]
   + 2.684204760709748 x[22] + 2.021980313748625 x[23]
   + 2.536289039269539 x[24] + 2.727289107398495 x[25]
   + 0.9777324589563307 x[26] + 3.749441888941096 x[27]
   + 3.711341007589384 x[28] + 1.377128536926348 x[29]
   + 1.749535793203794 x[30] + 1.835547488793902 x[31]
   + 3.28106504250699 x[32] + 2.686165562975792 x[33]
   + 3.577813776009139 x[34] + 0.8106260808271567 x[35]
   + 2.181764025063619 x[36] + 0.0882297879909466 x[37]
   + 2.599842106457925 x[38] + 0.4361480571820769 x[39]
   + 3.464253940846337 x[40] + 1.542135913344255 x[41]
   + 2.612102723766082 x[42] + 3.453884748433057 x[43]
   + 4.495406505478205 x[44] + 3.946609530171343 x[45]
   + 2.883537309464723 x[46] + 3.269249352880386 x[47]
   + 2.8551573146636 x[48] + 3.722192245294625 x[49]
   + 1.062835183789623 x[50] + 3.325469370302771 x[51]
   + 0.4881551910463058 x[52] + 1.28875734514337 x[53]
   + 4.44069511857542 x[54] + 2.985901739995953 x[55]
   + 3.746086575980793 x[56] + 1.358883722281786 x[57]
   + 2.487701147989285 x[58] + 1.446476701543188 x[59]
   + 1.582779764516559 x[60] + 3.473950413028334 x[61]
   + 2.229335783890201 x[62] + 2.377718467273299 x[63]
   + 1.235448740806909 x[64] + 3.161976231899108 x[65]
   + 1.91907835636276 x[66] + 1.082518109109375 x[67]
   + 2.631307010365929 x[68] + 3.093880366106185 x[69]
   + 2.445488605488791 x[70] + 0.0534221402990367 x[71]
   + 3.892961881791749 x[72] + 1.70023278750781 x[73]
   + 4.463487614204862 x[74] + 3.020577837526861 x[75]
   + 1.453885001927282 x[76] + 2.421543327862218 x[77]
   + 0.3054951332154918 x[78] + 4.394799079749138 x[79]
   + 3.60954157261176 x[80] + 3.639655391537803 x[81]
   + 3.088012401606787 x[82] + 2.908890504160793 x[83]
   + 0.1227046170222402 x[84] + 2.030721817628339 x[85]
   + 2.900325881439155 x[86] + 2.96015550790396 x[87]
   + 4.196687282606636 x[88] + 4.214347948852137 x[89]
   + 3.627285311470714 x[90] + 2.810233629687096 x[91]
   + 0.2907454234570698 x[92] + 2.103738209415836 x[93]
   + 4.339168598924818 x[94] + 2.40455247443861 x[95]
   + 4.362286047970956 x[96] + 3.550501431740923 x[97]
   + 4.512458753582138 x[98] + 3.69563264408863 x[99]
   + 0.2116605315300225 x[100] + 1.863466117624738 x[101]
   + 3.458399705910703 x[102] + 0.509189780839131 x[103]
   + 3.23068595299702 x[104] + 4.362919877946235 x[105]
   + 4.092142438977564 x[106] + 3.552413631878139 x[107]
   + 1.472585549034928 x[108] + 4.295963799300183 x[109]
   + 0.3726022808124643 x[110] + 3.439370287701323 x[111]
   + 2.326533087617373 x[112] + 1.804311080052794 x[113]
   + 4.219625858296766 x[114] + 0.6464737673370706 x[115]
   + 3.22302724815985 x[116] + 3.451539144666024 x[117]
   + 1.569385252823782 x[118] + 1.808036509823352 x[119]
   + 0.0851721624694438 x[120] + 4.52191796721511 x[121]
   + 0.2493545813560393 x[122] + 4.503913940303808 x[123]
   + 3.580091141017167 x[124] + 2.304134882533964 x[125]
   + 1.478631727134534 x[126] + 3.834904215558994 x[127]
   + 3.564631669850225 x[128] + 3.528373427592428 x[129]
   + 2.633100906909187 x[130] + 4.423436598362352 x[131]
   + 3.385768561529517 x[132] + 2.153790436535228 x[133]
   + 0.1694022880167937 x[134] + 4.547238358026672 x[135]
   + 2.532035151058186 x[136] + 0.9835429115018349 x[137]
   + 3.006562908668114 x[138] + 2.371925794320731 x[139]
   + 0.7494100814492669 x[140] + 2.384119563698801 x[141]
   + 0.1352879845712196 x[142] + 1.076782371629045 x[143]
   + 2.72289483114014 x[144] + 2.459371283593352 x[145]
   + 1.25364388384218 x[146] + 0.1866817992815127 x[147]
   + 0.9694750415985791 x[148] + 4.039546295587999 x[149] + 44 u[0]
   + 13 u[1] + 87 u[2] + 72 u[3] + u[4] + 2 u[5] + 30 u[6] + 20 u[7]
   + 66 u[8] + 99 u[9] + 44 u[10] + 44 u[11] + 57 u[12] + 9 u[13]
   + 77 u[14] + 13 u[15] + 38 u[16] + 73 u[17] + 10 u[18] + 7 u[19]
   + 70 u[20] + 80 u[21] + 57 u[22] + 39 u[23] + 13 u[24] + 69 u[25]
   + 59 u[26] + 44 u[27] + 30 u[28] + 100 u[29] + 30 u[30] + 36 u[31]
   + 32 u[32] + 18 u[33] + 85 u[34] + 94 u[35] + 97 u[36] + 37 u[37]
   + 85 u[38] + 75 u[39] + 76 u[40] + 42 u[41] + 55 u[42] + 22 u[43]
   + 88 u[44] + 83 u[45] + 34 u[46] + 10 u[47] + 80 u[48] + 57 u[49]
   + 59 u[50] + u[51] + 98 u[52] + 77 u[53] + 9 u[54] + 8 u[55] + 38 u[56]
   + 75 u[57] + 5 u[58] + 95 u[59] + 49 u[60] + 67 u[61] + 60 u[62]
   + 91 u[63] + 48 u[64] + 13 u[65] + 81 u[66] + 71 u[67] + 45 u[68]
   + 46 u[69] + 6 u[70] + 18 u[71] + 7 u[72] + 12 u[73] + 36 u[74]
   + 37 u[75] + 23 u[76] + 96 u[77] + 9 u[78] + 87 u[79] + 54 u[80]
   + 30 u[81] + 47 u[82] + 74 u[83] + 10 u[84] + 34 u[85] + 88 u[86]
   + 13 u[87] + 3 u[88] + 60 u[89] + 77 u[90] + u[91] + 21 u[92] + 8 u[93]
   + 21 u[94] + 30 u[95] + 14 u[96] + 9 u[97] + 73 u[98] + 85 u[99]
   + 22 u[100] + 5 u[101] + 67 u[102] + 65 u[103] + 94 u[104] + 39 u[105]
   + 20 u[106] + 75 u[107] + 91 u[108] + 98 u[109] + 95 u[110] + 24 u[111]
   + 70 u[112] + 82 u[113] + 10 u[114] + 39 u[115] + 16 u[116] + 90 u[117]
   + 86 u[118] + 33 u[119] + 56 u[120] + 45 u[121] + 60 u[122] + 15 u[123]
   + 54 u[124] + 3 u[125] + 80 u[126] + 52 u[127] + 19 u[128] + 100 u[129]
   + 14 u[130] + 50 u[131] + 35 u[132] + 41 u[133] + 69 u[134] + 63 u[135]
   + 58 u[136] + 35 u[137] + 6 u[138] + 85 u[139] + 52 u[140] + 53 u[141]
   + 44 u[142] + 68 u[143] + 42 u[144] + 15 u[145] + 91 u[146] + 20 u[147]
   + 17 u[148] + 87 u[149] <= 71399
 mccormick1[0]: - u[0] + r[0] <= 0
 mccormick1[1]: - u[1] + r[1] <= 0
 mccormick1[2]: - u[2] + r[2] <= 0
 mccormick1[3]: - u[3] + r[3] <= 0
 mccormick1[4]: - u[4] + r[4] <= 0
 mccormick1[5]: - u[5] + r[5] <= 0
 mccormick1[6]: - u[6] + r[6] <= 0
 mccormick1[7]: - u[7] + r[7] <= 0
 mccormick1[8]: - u[8] + r[8] <= 0
 mccormick1[9]: - u[9] + r[9] <= 0
 mccormick1[10]: - u[10] + r[10] <= 0
 mccormick1[11]: - u[11] + r[11] <= 0
 mccormick1[12]: - u[12] + r[12] <= 0
 mccormick1[13]: - u[13] + r[13] <= 0
 mccormick1[14]: - u[14] + r[14] <= 0
 mccormick1[15]: - u[15] + r[15] <= 0
 mccormick1[16]: - u[16] + r[16] <= 0
 mccormick1[17]: - u[17] + r[17] <= 0
 mccormick1[18]: - u[18] + r[18] <= 0
 mccormick1[19]: - u[19] + r[19] <= 0
 mccormick1[20]: - u[20] + r[20] <= 0
 mccormick1[21]: - u[21] + r[21] <= 0
 mccormick1[22]: - u[22] + r[22] <= 0
 mccormick1[23]: - u[23] + r[23] <= 0
 mccormick1[24]: - u[24] + r[24] <= 0
 mccormick1[25]: - u[25] + r[25] <= 0
 mccormick1[26]: - u[26] + r[26] <= 0
 mccormick1[27]: - u[27] + r[27] <= 0
 mccormick1[28]: - u[28] + r[28] <= 0
 mccormick1[29]: - u[29] + r[29] <= 0
 mccormick1[30]: - u[30] + r[30] <= 0
 mccormick1[31]: - u[31] + r[31] <= 0
 mccormick1[32]: - u[32] + r[32] <= 0
 mccormick1[33]: - u[33] + r[33] <= 0
 mccormick1[34]: - u[34] + r[34] <= 0
 mccormick1[35]: - u[35] + r[35] <= 0
 mccormick1[36]: - u[36] + r[36] <= 0
 mccormick1[37]: - u[37] + r[37] <= 0
 mccormick1[38]: - u[38] + r[38] <= 0
 mccormick1[39]: - u[39] + r[39] <= 0
 mccormick1[40]: - u[40] + r[40] <= 0
 mccormick1[41]: - u[41] + r[41] <= 0
 mccormick1[42]: - u[42] + r[42] <= 0
 mccormick1[43]: - u[43] + r[43] <= 0
 mccormick1[44]: - u[44] + r[44] <= 0
 mccormick1[45]: - u[45] + r[45] <= 0
 mccormick1[46]: - u[46] + r[46] <= 0
 mccormick1[47]: - u[47] + r[47] <= 0
 mccormick1[48]: - u[48] + r[48] <= 0
 mccormick1[49]: - u[49] + r[49] <= 0
 mccormick1[50]: - u[50] + r[50] <= 0
 mccormick1[51]: - u[51] + r[51] <= 0
 mccormick1[52]: - u[52] + r[52] <= 0
 mccormick1[53]: - u[53] + r[53] <= 0
 mccormick1[54]: - u[54] + r[54] <= 0
 mccormick1[55]: - u[55] + r[55] <= 0
 mccormick1[56]: - u[56] + r[56] <= 0
 mccormick1[57]: - u[57] + r[57] <= 0
 mccormick1[58]: - u[58] + r[58] <= 0
 mccormick1[59]: - u[59] + r[59] <= 0
 mccormick1[60]: - u[60] + r[60] <= 0
 mccormick1[61]: - u[61] + r[61] <= 0
 mccormick1[62]: - u[62] + r[62] <= 0
 mccormick1[63]: - u[63] + r[63] <= 0
 mccormick1[64]: - u[64] + r[64] <= 0
 mccormick1[65]: - u[65] + r[65] <= 0
 mccormick1[66]: - u[66] + r[66] <= 0
 mccormick1[67]: - u[67] + r[67] <= 0
 mccormick1[68]: - u[68] + r[68] <= 0
 mccormick1[69]: - u[69] + r[69] <= 0
 mccormick1[70]: - u[70] + r[70] <= 0
 mccormick1[71]: - u[71] + r[71] <= 0
 mccormick1[72]: - u[72] + r[72] <= 0
 mccormick1[73]: - u[73] + r[73] <= 0
 mccormick1[74]: - u[74] + r[74] <= 0
 mccormick1[75]: - u[75] + r[75] <= 0
 mccormick1[76]: - u[76] + r[76] <= 0
 mccormick1[77]: - u[77] + r[77] <= 0
 mccormick1[78]: - u[78] + r[78] <= 0
 mccormick1[79]: - u[79] + r[79] <= 0
 mccormick1[80]: - u[80] + r[80] <= 0
 mccormick1[81]: - u[81] + r[81] <= 0
 mccormick1[82]: - u[82] + r[82] <= 0
 mccormick1[83]: - u[83] + r[83] <= 0
 mccormick1[84]: - u[84] + r[84] <= 0
 mccormick1[85]: - u[85] + r[85] <= 0
 mccormick1[86]: - u[86] + r[86] <= 0
 mccormick1[87]: - u[87] + r[87] <= 0
 mccormick1[88]: - u[88] + r[88] <= 0
 mccormick1[89]: - u[89] + r[89] <= 0
 mccormick1[90]: - u[90] + r[90] <= 0
 mccormick1[91]: - u[91] + r[91] <= 0
 mccormick1[92]: - u[92] + r[92] <= 0
 mccormick1[93]: - u[93] + r[93] <= 0
 mccormick1[94]: - u[94] + r[94] <= 0
 mccormick1[95]: - u[95] + r[95] <= 0
 mccormick1[96]: - u[96] + r[96] <= 0
 mccormick1[97]: - u[97] + r[97] <= 0
 mccormick1[98]: - u[98] + r[98] <= 0
 mccormick1[99]: - u[99] + r[99] <= 0
 mccormick1[100]: - u[100] + r[100] <= 0
 mccormick1[101]: - u[101] + r[101] <= 0
 mccormick1[102]: - u[102] + r[102] <= 0
 mccormick1[103]: - u[103] + r[103] <= 0
 mccormick1[104]: - u[104] + r[104] <= 0
 mccormick1[105]: - u[105] + r[105] <= 0
 mccormick1[106]: - u[106] + r[106] <= 0
 mccormick1[107]: - u[107] + r[107] <= 0
 mccormick1[108]: - u[108] + r[108] <= 0
 mccormick1[109]: - u[109] + r[109] <= 0
 mccormick1[110]: - u[110] + r[110] <= 0
 mccormick1[111]: - u[111] + r[111] <= 0
 mccormick1[112]: - u[112] + r[112] <= 0
 mccormick1[113]: - u[113] + r[113] <= 0
 mccormick1[114]: - u[114] + r[114] <= 0
 mccormick1[115]: - u[115] + r[115] <= 0
 mccormick1[116]: - u[116] + r[116] <= 0
 mccormick1[117]: - u[117] + r[117] <= 0
 mccormick1[118]: - u[118] + r[118] <= 0
 mccormick1[119]: - u[119] + r[119] <= 0
 mccormick1[120]: - u[120] + r[120] <= 0
 mccormick1[121]: - u[121] + r[121] <= 0
 mccormick1[122]: - u[122] + r[122] <= 0
 mccormick1[123]: - u[123] + r[123] <= 0
 mccormick1[124]: - u[124] + r[124] <= 0
 mccormick1[125]: - u[125] + r[125] <= 0
 mccormick1[126]: - u[126] + r[126] <= 0
 mccormick1[127]: - u[127] + r[127] <= 0
 mccormick1[128]: - u[128] + r[128] <= 0
 mccormick1[129]: - u[129] + r[129] <= 0
 mccormick1[130]: - u[130] + r[130] <= 0
 mccormick1[131]: - u[131] + r[131] <= 0
 mccormick1[132]: - u[132] + r[132] <= 0
 mccormick1[133]: - u[133] + r[133] <= 0
 mccormick1[134]: - u[134] + r[134] <= 0
 mccormick1[135]: - u[135] + r[135] <= 0
 mccormick1[136]: - u[136] + r[136] <= 0
 mccormick1[137]: - u[137] + r[137] <= 0
 mccormick1[138]: - u[138] + r[138] <= 0
 mccormick1[139]: - u[139] + r[139] <= 0
 mccormick1[140]: - u[140] + r[140] <= 0
 mccormick1[141]: - u[141] + r[141] <= 0
 mccormick1[142]: - u[142] + r[142] <= 0
 mccormick1[143]: - u[143] + r[143] <= 0
 mccormick1[144]: - u[144] + r[144] <= 0
 mccormick1[145]: - u[145] + r[145] <= 0
 mccormick1[146]: - u[146] + r[146] <= 0
 mccormick1[147]: - u[147] + r[147] <= 0
 mccormick1[148]: - u[148] + r[148] <= 0
 mccormick1[149]: - u[149] + r[149] <= 0
 mccormick2[0]: - x[0] + r[0] <= 0
 mccormick2[1]: - x[1] + r[1] <= 0
 mccormick2[2]: - x[2] + r[2] <= 0
 mccormick2[3]: - x[3] + r[3] <= 0
 mccormick2[4]: - x[4] + r[4] <= 0
 mccormick2[5]: - x[5] + r[5] <= 0
 mccormick2[6]: - x[6] + r[6] <= 0
 mccormick2[7]: - x[7] + r[7] <= 0
 mccormick2[8]: - x[8] + r[8] <= 0
 mccormick2[9]: - x[9] + r[9] <= 0
 mccormick2[10]: - x[10] + r[10] <= 0
 mccormick2[11]: - x[11] + r[11] <= 0
 mccormick2[12]: - x[12] + r[12] <= 0
 mccormick2[13]: - x[13] + r[13] <= 0
 mccormick2[14]: - x[14] + r[14] <= 0
 mccormick2[15]: - x[15] + r[15] <= 0
 mccormick2[16]: - x[16] + r[16] <= 0
 mccormick2[17]: - x[17] + r[17] <= 0
 mccormick2[18]: - x[18] + r[18] <= 0
 mccormick2[19]: - x[19] + r[19] <= 0
 mccormick2[20]: - x[20] + r[20] <= 0
 mccormick2[21]: - x[21] + r[21] <= 0
 mccormick2[22]: - x[22] + r[22] <= 0
 mccormick2[23]: - x[23] + r[23] <= 0
 mccormick2[24]: - x[24] + r[24] <= 0
 mccormick2[25]: - x[25] + r[25] <= 0
 mccormick2[26]: - x[26] + r[26] <= 0
 mccormick2[27]: - x[27] + r[27] <= 0
 mccormick2[28]: - x[28] + r[28] <= 0
 mccormick2[29]: - x[29] + r[29] <= 0
 mccormick2[30]: - x[30] + r[30] <= 0
 mccormick2[31]: - x[31] + r[31] <= 0
 mccormick2[32]: - x[32] + r[32] <= 0
 mccormick2[33]: - x[33] + r[33] <= 0
 mccormick2[34]: - x[34] + r[34] <= 0
 mccormick2[35]: - x[35] + r[35] <= 0
 mccormick2[36]: - x[36] + r[36] <= 0
 mccormick2[37]: - x[37] + r[37] <= 0
 mccormick2[38]: - x[38] + r[38] <= 0
 mccormick2[39]: - x[39] + r[39] <= 0
 mccormick2[40]: - x[40] + r[40] <= 0
 mccormick2[41]: - x[41] + r[41] <= 0
 mccormick2[42]: - x[42] + r[42] <= 0
 mccormick2[43]: - x[43] + r[43] <= 0
 mccormick2[44]: - x[44] + r[44] <= 0
 mccormick2[45]: - x[45] + r[45] <= 0
 mccormick2[46]: - x[46] + r[46] <= 0
 mccormick2[47]: - x[47] + r[47] <= 0
 mccormick2[48]: - x[48] + r[48] <= 0
 mccormick2[49]: - x[49] + r[49] <= 0
 mccormick2[50]: - x[50] + r[50] <= 0
 mccormick2[51]: - x[51] + r[51] <= 0
 mccormick2[52]: - x[52] + r[52] <= 0
 mccormick2[53]: - x[53] + r[53] <= 0
 mccormick2[54]: - x[54] + r[54] <= 0
 mccormick2[55]: - x[55] + r[55] <= 0
 mccormick2[56]: - x[56] + r[56] <= 0
 mccormick2[57]: - x[57] + r[57] <= 0
 mccormick2[58]: - x[58] + r[58] <= 0
 mccormick2[59]: - x[59] + r[59] <= 0
 mccormick2[60]: - x[60] + r[60] <= 0
 mccormick2[61]: - x[61] + r[61] <= 0
 mccormick2[62]: - x[62] + r[62] <= 0
 mccormick2[63]: - x[63] + r[63] <= 0
 mccormick2[64]: - x[64] + r[64] <= 0
 mccormick2[65]: - x[65] + r[65] <= 0
 mccormick2[66]: - x[66] + r[66] <= 0
 mccormick2[67]: - x[67] + r[67] <= 0
 mccormick2[68]: - x[68] + r[68] <= 0
 mccormick2[69]: - x[69] + r[69] <= 0
 mccormick2[70]: - x[70] + r[70] <= 0
 mccormick2[71]: - x[71] + r[71] <= 0
 mccormick2[72]: - x[72] + r[72] <= 0
 mccormick2[73]: - x[73] + r[73] <= 0
 mccormick2[74]: - x[74] + r[74] <= 0
 mccormick2[75]: - x[75] + r[75] <= 0
 mccormick2[76]: - x[76] + r[76] <= 0
 mccormick2[77]: - x[77] + r[77] <= 0
 mccormick2[78]: - x[78] + r[78] <= 0
 mccormick2[79]: - x[79] + r[79] <= 0
 mccormick2[80]: - x[80] + r[80] <= 0
 mccormick2[81]: - x[81] + r[81] <= 0
 mccormick2[82]: - x[82] + r[82] <= 0
 mccormick2[83]: - x[83] + r[83] <= 0
 mccormick2[84]: - x[84] + r[84] <= 0
 mccormick2[85]: - x[85] + r[85] <= 0
 mccormick2[86]: - x[86] + r[86] <= 0
 mccormick2[87]: - x[87] + r[87] <= 0
 mccormick2[88]: - x[88] + r[88] <= 0
 mccormick2[89]: - x[89] + r[89] <= 0
 mccormick2[90]: - x[90] + r[90] <= 0
 mccormick2[91]: - x[91] + r[91] <= 0
 mccormick2[92]: - x[92] + r[92] <= 0
 mccormick2[93]: - x[93] + r[93] <= 0
 mccormick2[94]: - x[94] + r[94] <= 0
 mccormick2[95]: - x[95] + r[95] <= 0
 mccormick2[96]: - x[96] + r[96] <= 0
 mccormick2[97]: - x[97] + r[97] <= 0
 mccormick2[98]: - x[98] + r[98] <= 0
 mccormick2[99]: - x[99] + r[99] <= 0
 mccormick2[100]: - x[100] + r[100] <= 0
 mccormick2[101]: - x[101] + r[101] <= 0
 mccormick2[102]: - x[102] + r[102] <= 0
 mccormick2[103]: - x[103] + r[103] <= 0
 mccormick2[104]: - x[104] + r[104] <= 0
 mccormick2[105]: - x[105] + r[105] <= 0
 mccormick2[106]: - x[106] + r[106] <= 0
 mccormick2[107]: - x[107] + r[107] <= 0
 mccormick2[108]: - x[108] + r[108] <= 0
 mccormick2[109]: - x[109] + r[109] <= 0
 mccormick2[110]: - x[110] + r[110] <= 0
 mccormick2[111]: - x[111] + r[111] <= 0
 mccormick2[112]: - x[112] + r[112] <= 0
 mccormick2[113]: - x[113] + r[113] <= 0
 mccormick2[114]: - x[114] + r[114] <= 0
 mccormick2[115]: - x[115] + r[115] <= 0
 mccormick2[116]: - x[116] + r[116] <= 0
 mccormick2[117]: - x[117] + r[117] <= 0
 mccormick2[118]: - x[118] + r[118] <= 0
 mccormick2[119]: - x[119] + r[119] <= 0
 mccormick2[120]: - x[120] + r[120] <= 0
 mccormick2[121]: - x[121] + r[121] <= 0
 mccormick2[122]: - x[122] + r[122] <= 0
 mccormick2[123]: - x[123] + r[123] <= 0
 mccormick2[124]: - x[124] + r[124] <= 0
 mccormick2[125]: - x[125] + r[125] <= 0
 mccormick2[126]: - x[126] + r[126] <= 0
 mccormick2[127]: - x[127] + r[127] <= 0
 mccormick2[128]: - x[128] + r[128] <= 0
 mccormick2[129]: - x[129] + r[129] <= 0
 mccormick2[130]: - x[130] + r[130] <= 0
 mccormick2[131]: - x[131] + r[131] <= 0
 mccormick2[132]: - x[132] + r[132] <= 0
 mccormick2[133]: - x[133] + r[133] <= 0
 mccormick2[134]: - x[134] + r[134] <= 0
 mccormick2[135]: - x[135] + r[135] <= 0
 mccormick2[136]: - x[136] + r[136] <= 0
 mccormick2[137]: - x[137] + r[137] <= 0
 mccormick2[138]: - x[138] + r[138] <= 0
 mccormick2[139]: - x[139] + r[139] <= 0
 mccormick2[140]: - x[140] + r[140] <= 0
 mccormick2[141]: - x[141] + r[141] <= 0
 mccormick2[142]: - x[142] + r[142] <= 0
 mccormick2[143]: - x[143] + r[143] <= 0
 mccormick2[144]: - x[144] + r[144] <= 0
 mccormick2[145]: - x[145] + r[145] <= 0
 mccormick2[146]: - x[146] + r[146] <= 0
 mccormick2[147]: - x[147] + r[147] <= 0
 mccormick2[148]: - x[148] + r[148] <= 0
 mccormick2[149]: - x[149] + r[149] <= 0
 mccormick3[0]: x[0] + u[0] - r[0] <= 1
 mccormick3[1]: x[1] + u[1] - r[1] <= 1
 mccormick3[2]: x[2] + u[2] - r[2] <= 1
 mccormick3[3]: x[3] + u[3] - r[3] <= 1
 mccormick3[4]: x[4] + u[4] - r[4] <= 1
 mccormick3[5]: x[5] + u[5] - r[5] <= 1
 mccormick3[6]: x[6] + u[6] - r[6] <= 1
 mccormick3[7]: x[7] + u[7] - r[7] <= 1
 mccormick3[8]: x[8] + u[8] - r[8] <= 1
 mccormick3[9]: x[9] + u[9] - r[9] <= 1
 mccormick3[10]: x[10] + u[10] - r[10] <= 1
 mccormick3[11]: x[11] + u[11] - r[11] <= 1
 mccormick3[12]: x[12] + u[12] - r[12] <= 1
 mccormick3[13]: x[13] + u[13] - r[13] <= 1
 mccormick3[14]: x[14] + u[14] - r[14] <= 1
 mccormick3[15]: x[15] + u[15] - r[15] <= 1
 mccormick3[16]: x[16] + u[16] - r[16] <= 1
 mccormick3[17]: x[17] + u[17] - r[17] <= 1
 mccormick3[18]: x[18] + u[18] - r[18] <= 1
 mccormick3[19]: x[19] + u[19] - r[19] <= 1
 mccormick3[20]: x[20] + u[20] - r[20] <= 1
 mccormick3[21]: x[21] + u[21] - r[21] <= 1
 mccormick3[22]: x[22] + u[22] - r[22] <= 1
 mccormick3[23]: x[23] + u[23] - r[23] <= 1
 mccormick3[24]: x[24] + u[24] - r[24] <= 1
 mccormick3[25]: x[25] + u[25] - r[25] <= 1
 mccormick3[26]: x[26] + u[26] - r[26] <= 1
 mccormick3[27]: x[27] + u[27] - r[27] <= 1
 mccormick3[28]: x[28] + u[28] - r[28] <= 1
 mccormick3[29]: x[29] + u[29] - r[29] <= 1
 mccormick3[30]: x[30] + u[30] - r[30] <= 1
 mccormick3[31]: x[31] + u[31] - r[31] <= 1
 mccormick3[32]: x[32] + u[32] - r[32] <= 1
 mccormick3[33]: x[33] + u[33] - r[33] <= 1
 mccormick3[34]: x[34] + u[34] - r[34] <= 1
 mccormick3[35]: x[35] + u[35] - r[35] <= 1
 mccormick3[36]: x[36] + u[36] - r[36] <= 1
 mccormick3[37]: x[37] + u[37] - r[37] <= 1
 mccormick3[38]: x[38] + u[38] - r[38] <= 1
 mccormick3[39]: x[39] + u[39] - r[39] <= 1
 mccormick3[40]: x[40] + u[40] - r[40] <= 1
 mccormick3[41]: x[41] + u[41] - r[41] <= 1
 mccormick3[42]: x[42] + u[42] - r[42] <= 1
 mccormick3[43]: x[43] + u[43] - r[43] <= 1
 mccormick3[44]: x[44] + u[44] - r[44] <= 1
 mccormick3[45]: x[45] + u[45] - r[45] <= 1
 mccormick3[46]: x[46] + u[46] - r[46] <= 1
 mccormick3[47]: x[47] + u[47] - r[47] <= 1
 mccormick3[48]: x[48] + u[48] - r[48] <= 1
 mccormick3[49]: x[49] + u[49] - r[49] <= 1
 mccormick3[50]: x[50] + u[50] - r[50] <= 1
 mccormick3[51]: x[51] + u[51] - r[51] <= 1
 mccormick3[52]: x[52] + u[52] - r[52] <= 1
 mccormick3[53]: x[53] + u[53] - r[53] <= 1
 mccormick3[54]: x[54] + u[54] - r[54] <= 1
 mccormick3[55]: x[55] + u[55] - r[55] <= 1
 mccormick3[56]: x[56] + u[56] - r[56] <= 1
 mccormick3[57]: x[57] + u[57] - r[57] <= 1
 mccormick3[58]: x[58] + u[58] - r[58] <= 1
 mccormick3[59]: x[59] + u[59] - r[59] <= 1
 mccormick3[60]: x[60] + u[60] - r[60] <= 1
 mccormick3[61]: x[61] + u[61] - r[61] <= 1
 mccormick3[62]: x[62] + u[62] - r[62] <= 1
 mccormick3[63]: x[63] + u[63] - r[63] <= 1
 mccormick3[64]: x[64] + u[64] - r[64] <= 1
 mccormick3[65]: x[65] + u[65] - r[65] <= 1
 mccormick3[66]: x[66] + u[66] - r[66] <= 1
 mccormick3[67]: x[67] + u[67] - r[67] <= 1
 mccormick3[68]: x[68] + u[68] - r[68] <= 1
 mccormick3[69]: x[69] + u[69] - r[69] <= 1
 mccormick3[70]: x[70] + u[70] - r[70] <= 1
 mccormick3[71]: x[71] + u[71] - r[71] <= 1
 mccormick3[72]: x[72] + u[72] - r[72] <= 1
 mccormick3[73]: x[73] + u[73] - r[73] <= 1
 mccormick3[74]: x[74] + u[74] - r[74] <= 1
 mccormick3[75]: x[75] + u[75] - r[75] <= 1
 mccormick3[76]: x[76] + u[76] - r[76] <= 1
 mccormick3[77]: x[77] + u[77] - r[77] <= 1
 mccormick3[78]: x[78] + u[78] - r[78] <= 1
 mccormick3[79]: x[79] + u[79] - r[79] <= 1
 mccormick3[80]: x[80] + u[80] - r[80] <= 1
 mccormick3[81]: x[81] + u[81] - r[81] <= 1
 mccormick3[82]: x[82] + u[82] - r[82] <= 1
 mccormick3[83]: x[83] + u[83] - r[83] <= 1
 mccormick3[84]: x[84] + u[84] - r[84] <= 1
 mccormick3[85]: x[85] + u[85] - r[85] <= 1
 mccormick3[86]: x[86] + u[86] - r[86] <= 1
 mccormick3[87]: x[87] + u[87] - r[87] <= 1
 mccormick3[88]: x[88] + u[88] - r[88] <= 1
 mccormick3[89]: x[89] + u[89] - r[89] <= 1
 mccormick3[90]: x[90] + u[90] - r[90] <= 1
 mccormick3[91]: x[91] + u[91] - r[91] <= 1
 mccormick3[92]: x[92] + u[92] - r[92] <= 1
 mccormick3[93]: x[93] + u[93] - r[93] <= 1
 mccormick3[94]: x[94] + u[94] - r[94] <= 1
 mccormick3[95]: x[95] + u[95] - r[95] <= 1
 mccormick3[96]: x[96] + u[96] - r[96] <= 1
 mccormick3[97]: x[97] + u[97] - r[97] <= 1
 mccormick3[98]: x[98] + u[98] - r[98] <= 1
 mccormick3[99]: x[99] + u[99] - r[99] <= 1
 mccormick3[100]: x[100] + u[100] - r[100] <= 1
 mccormick3[101]: x[101] + u[101] - r[101] <= 1
 mccormick3[102]: x[102] + u[102] - r[102] <= 1
 mccormick3[103]: x[103] + u[103] - r[103] <= 1
 mccormick3[104]: x[104] + u[104] - r[104] <= 1
 mccormick3[105]: x[105] + u[105] - r[105] <= 1
 mccormick3[106]: x[106] + u[106] - r[106] <= 1
 mccormick3[107]: x[107] + u[107] - r[107] <= 1
 mccormick3[108]: x[108] + u[108] - r[108] <= 1
 mccormick3[109]: x[109] + u[109] - r[109] <= 1
 mccormick3[110]: x[110] + u[110] - r[110] <= 1
 mccormick3[111]: x[111] + u[111] - r[111] <= 1
 mccormick3[112]: x[112] + u[112] - r[112] <= 1
 mccormick3[113]: x[113] + u[113] - r[113] <= 1
 mccormick3[114]: x[114] + u[114] - r[114] <= 1
 mccormick3[115]: x[115] + u[115] - r[115] <= 1
 mccormick3[116]: x[116] + u[116] - r[116] <= 1
 mccormick3[117]: x[117] + u[117] - r[117] <= 1
 mccormick3[118]: x[118] + u[118] - r[118] <= 1
 mccormick3[119]: x[119] + u[119] - r[119] <= 1
 mccormick3[120]: x[120] + u[120] - r[120] <= 1
 mccormick3[121]: x[121] + u[121] - r[121] <= 1
 mccormick3[122]: x[122] + u[122] - r[122] <= 1
 mccormick3[123]: x[123] + u[123] - r[123] <= 1
 mccormick3[124]: x[124] + u[124] - r[124] <= 1
 mccormick3[125]: x[125] + u[125] - r[125] <= 1
 mccormick3[126]: x[126] + u[126] - r[126] <= 1
 mccormick3[127]: x[127] + u[127] - r[127] <= 1
 mccormick3[128]: x[128] + u[128] - r[128] <= 1
 mccormick3[129]: x[129] + u[129] - r[129] <= 1
 mccormick3[130]: x[130] + u[130] - r[130] <= 1
 mccormick3[131]: x[131] + u[131] - r[131] <= 1
 mccormick3[132]: x[132] + u[132] - r[132] <= 1
 mccormick3[133]: x[133] + u[133] - r[133] <= 1
 mccormick3[134]: x[134] + u[134] - r[134] <= 1
 mccormick3[135]: x[135] + u[135] - r[135] <= 1
 mccormick3[136]: x[136] + u[136] - r[136] <= 1
 mccormick3[137]: x[137] + u[137] - r[137] <= 1
 mccormick3[138]: x[138] + u[138] - r[138] <= 1
 mccormick3[139]: x[139] + u[139] - r[139] <= 1
 mccormick3[140]: x[140] + u[140] - r[140] <= 1
 mccormick3[141]: x[141] + u[141] - r[141] <= 1
 mccormick3[142]: x[142] + u[142] - r[142] <= 1
 mccormick3[143]: x[143] + u[143] - r[143] <= 1
 mccormick3[144]: x[144] + u[144] - r[144] <= 1
 mccormick3[145]: x[145] + u[145] - r[145] <= 1
 mccormick3[146]: x[146] + u[146] - r[146] <= 1
 mccormick3[147]: x[147] + u[147] - r[147] <= 1
 mccormick3[148]: x[148] + u[148] - r[148] <= 1
 mccormick3[149]: x[149] + u[149] - r[149] <= 1
Bounds
Binaries
 x[0] x[1] x[2] x[3] x[4] x[5] x[6] x[7] x[8] x[9] x[10] x[11] x[12] x[13]
 x[14] x[15] x[16] x[17] x[18] x[19] x[20] x[21] x[22] x[23] x[24] x[25]
 x[26] x[27] x[28] x[29] x[30] x[31] x[32] x[33] x[34] x[35] x[36] x[37]
 x[38] x[39] x[40] x[41] x[42] x[43] x[44] x[45] x[46] x[47] x[48] x[49]
 x[50] x[51] x[52] x[53] x[54] x[55] x[56] x[57] x[58] x[59] x[60] x[61]
 x[62] x[63] x[64] x[65] x[66] x[67] x[68] x[69] x[70] x[71] x[72] x[73]
 x[74] x[75] x[76] x[77] x[78] x[79] x[80] x[81] x[82] x[83] x[84] x[85]
 x[86] x[87] x[88] x[89] x[90] x[91] x[92] x[93] x[94] x[95] x[96] x[97]
 x[98] x[99] x[100] x[101] x[102] x[103] x[104] x[105] x[106] x[107] x[108]
 x[109] x[110] x[111] x[112] x[113] x[114] x[115] x[116] x[117] x[118]
 x[119] x[120] x[121] x[122] x[123] x[124] x[125] x[126] x[127] x[128]
 x[129] x[130] x[131] x[132] x[133] x[134] x[135] x[136] x[137] x[138]
 x[139] x[140] x[141] x[142] x[143] x[144] x[145] x[146] x[147] x[148]
 x[149] u[0] u[1] u[2] u[3] u[4] u[5] u[6] u[7] u[8] u[9] u[10] u[11] u[12]
 u[13] u[14] u[15] u[16] u[17] u[18] u[19] u[20] u[21] u[22] u[23] u[24]
 u[25] u[26] u[27] u[28] u[29] u[30] u[31] u[32] u[33] u[34] u[35] u[36]
 u[37] u[38] u[39] u[40] u[41] u[42] u[43] u[44] u[45] u[46] u[47] u[48]
 u[49] u[50] u[51] u[52] u[53] u[54] u[55] u[56] u[57] u[58] u[59] u[60]
 u[61] u[62] u[63] u[64] u[65] u[66] u[67] u[68] u[69] u[70] u[71] u[72]
 u[73] u[74] u[75] u[76] u[77] u[78] u[79] u[80] u[81] u[82] u[83] u[84]
 u[85] u[86] u[87] u[88] u[89] u[90] u[91] u[92] u[93] u[94] u[95] u[96]
 u[97] u[98] u[99] u[100] u[101] u[102] u[103] u[104] u[105] u[106] u[107]
 u[108] u[109] u[110] u[111] u[112] u[113] u[114] u[115] u[116] u[117]
 u[118] u[119] u[120] u[121] u[122] u[123] u[124] u[125] u[126] u[127]
 u[128] u[129] u[130] u[131] u[132] u[133] u[134] u[135] u[136] u[137]
 u[138] u[139] u[140] u[141] u[142] u[143] u[144] u[145] u[146] u[147]
 u[148] u[149] r[0] r[1] r[2] r[3] r[4] r[5] r[6] r[7] r[8] r[9] r[10]
 r[11] r[12] r[13] r[14] r[15] r[16] r[17] r[18] r[19] r[20] r[21] r[22]
 r[23] r[24] r[25] r[26] r[27] r[28] r[29] r[30] r[31] r[32] r[33] r[34]
 r[35] r[36] r[37] r[38] r[39] r[40] r[41] r[42] r[43] r[44] r[45] r[46]
 r[47] r[48] r[49] r[50] r[51] r[52] r[53] r[54] r[55] r[56] r[57] r[58]
 r[59] r[60] r[61] r[62] r[63] r[64] r[65] r[66] r[67] r[68] r[69] r[70]
 r[71] r[72] r[73] r[74] r[75] r[76] r[77] r[78] r[79] r[80] r[81] r[82]
 r[83] r[84] r[85] r[86] r[87] r[88] r[89] r[90] r[91] r[92] r[93] r[94]
 r[95] r[96] r[97] r[98] r[99] r[100] r[101] r[102] r[103] r[104] r[105]
 r[106] r[107] r[108] r[109] r[110] r[111] r[112] r[113] r[114] r[115]
 r[116] r[117] r[118] r[119] r[120] r[121] r[122] r[123] r[124] r[125]
 r[126] r[127] r[128] r[129] r[130] r[131] r[132] r[133] r[134] r[135]
 r[136] r[137] r[138] r[139] r[140] r[141] r[142] r[143] r[144] r[145]
 r[146] r[147] r[148] r[149]
End
