instances/knapsack/discrete/knapsack_150_3.kp
23819
150
787

14 1.4 75
71 7.1 83
73 7.3 85
78 7.8 77
43 4.3 22
88 8.8 46
96 9.6 90
2 0.2 68
16 1.6 55
61 6.1 51
58 5.8 20
30 3.0 48
55 5.5 44
31 3.1 51
99 9.9 100
87 8.7 17
100 10.0 31
71 7.1 11
56 5.6 51
77 7.7 38
32 3.2 90
86 8.6 96
31 3.1 45
17 1.7 57
79 7.9 38
59 5.9 71
49 4.9 21
90 9.0 32
12 1.2 51
82 8.2 61
68 6.8 82
30 3.0 45
34 3.4 49
24 2.4 16
79 7.9 76
52 5.2 18
79 7.9 6
7 0.7 56
59 5.9 63
49 4.9 96
6 0.6 65
80 8.0 86
49 4.9 38
52 5.2 4
34 3.4 19
41 4.1 20
60 6.0 85
48 4.8 97
50 5.0 13
87 8.7 62
89 8.9 56
51 5.1 15
24 2.4 76
67 6.7 38
51 5.1 29
94 9.4 27
32 3.2 99
89 8.9 77
31 3.1 97
97 9.7 100
31 3.1 81
57 5.7 31
66 6.6 10
5 0.5 90
58 5.8 63
15 1.5 54
63 6.3 26
9 0.9 82
67 6.7 45
72 7.2 50
100 10.0 78
48 4.8 16
37 3.7 66
18 1.8 78
90 9.0 3
11 1.1 91
9 0.9 63
46 4.6 10
31 3.1 57
53 5.3 4
24 2.4 44
16 1.6 59
85 8.5 6
72 7.2 95
52 5.2 10
56 5.6 89
54 5.4 3
7 0.7 84
81 8.1 89
14 1.4 59
87 8.7 15
3 0.3 6
71 7.1 22
14 1.4 77
91 9.1 57
80 8.0 99
100 10.0 34
43 4.3 25
99 9.9 89
87 8.7 9
100 10.0 21
3 0.3 54
49 4.9 51
59 5.9 22
72 7.2 72
81 8.1 64
74 7.4 55
45 4.5 77
25 2.5 71
100 10.0 37
69 6.9 86
70 7.0 95
68 6.8 2
84 8.4 52
4 0.4 35
21 2.1 22
2 0.2 56
36 3.6 10
60 6.0 59
7 0.7 32
10 1.0 2
75 7.5 63
18 1.8 31
13 1.3 52
96 9.6 44
73 7.3 77
78 7.8 49
82 8.2 99
45 4.5 24
62 6.2 1
80 8.0 43
28 2.8 20
61 6.1 53
51 5.1 59
91 9.1 26
29 2.9 32
52 5.2 17
97 9.7 2
76 7.6 100
51 5.1 66
14 1.4 23
91 9.1 25
98 9.8 70
26 2.6 92
100 10.0 25
81 8.1 3
65 6.5 74
38 3.8 48
95 9.5 5
85 8.5 23

71399
683

[0.7449135263559069 1.0880567944426982 3.9149371818750702 4.062087290991448 3.5853603583350955 2.819699963659471 3.0976334853208973 3.390041653242932 1.6693951800047204 3.1927892387555175 0.6400209492722765 4.340974053828779 1.4888914471669847 2.1804835782602043 0.48072467554055304 3.812343612691282 1.1927246214437233 0.05133104403645672 0.31105864069832456 2.0570721252483177 1.2502929970075856 1.852716670949663 2.6842047607097483 2.021980313748625 2.5362890392695387 2.7272891073984953 0.9777324589563307 3.7494418889410963 3.7113410075893842 1.3771285369263475 1.749535793203794 1.8355474887939018 3.28106504250699 2.686165562975792 3.5778137760091386 0.8106260808271567 2.181764025063619 0.0882297879909466 2.5998421064579254 0.43614805718207694 3.4642539408463366 1.5421359133442551 2.6121027237660823 3.453884748433057 4.495406505478205 3.9466095301713433 2.8835373094647228 3.269249352880386 2.8551573146636002 3.722192245294625 1.0628351837896235 3.325469370302771 0.48815519104630584 1.2887573451433698 4.44069511857542 2.985901739995953 3.7460865759807933 1.3588837222817862 2.4877011479892848 1.4464767015431876 1.5827797645165589 3.473950413028334 2.2293357838902006 2.377718467273299 1.235448740806909 3.161976231899108 1.9190783563627596 1.0825181091093752 2.631307010365929 3.0938803661061853 2.4454886054887908 0.05342214029903672 3.892961881791749 1.70023278750781 4.463487614204862 3.020577837526861 1.4538850019272815 2.421543327862218 0.30549513321549177 4.394799079749138 3.60954157261176 3.639655391537803 3.088012401606787 2.9088905041607926 0.12270461702224017 2.030721817628339 2.900325881439155 2.96015550790396 4.196687282606636 4.214347948852137 3.6272853114707138 2.8102336296870956 0.2907454234570698 2.103738209415836 4.339168598924818 2.40455247443861 4.362286047970956 3.5505014317409227 4.512458753582138 3.69563264408863 0.21166053153002254 1.8634661176247382 3.4583997059107032 0.509189780839131 3.2306859529970198 4.3629198779462355 4.092142438977564 3.552413631878139 1.4725855490349278 4.295963799300183 0.37260228081246427 3.439370287701323 2.3265330876173733 1.8043110800527944 4.219625858296766 0.6464737673370706 3.22302724815985 3.4515391446660235 1.5693852528237824 1.8080365098233517 0.08517216246944383 4.52191796721511 0.2493545813560393 4.503913940303808 3.5800911410171667 2.3041348825339636 1.4786317271345342 3.834904215558994 3.5646316698502254 3.528373427592428 2.6331009069091866 4.423436598362352 3.385768561529517 2.153790436535228 0.16940228801679375 4.5472383580266715 2.5320351510581856 0.9835429115018349 3.0065629086681143 2.3719257943207315 0.7494100814492669 2.3841195636988006 0.13528798457121963 1.0767823716290448 2.7228948311401395 2.459371283593352 1.2536438838421804 0.1866817992815127 0.9694750415985791 4.039546295587999]

[44 13 87 72 1 2 30 20 66 99 44 44 57 9 77 13 38 73 10 7 70 80 57 39 13 69 59 44 30 100 30 36 32 18 85 94 97 37 85 75 76 42 55 22 88 83 34 10 80 57 59 1 98 77 9 8 38 75 5 95 49 67 60 91 48 13 81 71 45 46 6 18 7 12 36 37 23 96 9 87 54 30 47 74 10 34 88 13 3 60 77 1 21 8 21 30 14 9 73 85 22 5 67 65 94 39 20 75 91 98 95 24 70 82 10 39 16 90 86 33 56 45 60 15 54 3 80 52 19 100 14 50 35 41 69 63 58 35 6 85 52 53 44 68 42 15 91 20 17 87]
